c CNF file corresponding to a (partial) station packing problem.
p cnf 3131 171
1 2 3 4 5 6 7 8 9 10 11 12 13 14 0
-1 -2 0
-1 -3 0
-1 -4 0
-1 -5 0
-1 -6 0
-1 -7 0
-1 -8 0
-1 -9 0
-1 -10 0
-1 -11 0
-1 -12 0
-1 -13 0
-1 -14 0
-2 -3 0
-2 -4 0
-2 -5 0
-2 -6 0
-2 -7 0
-2 -8 0
-2 -9 0
-2 -10 0
-2 -11 0
-2 -12 0
-2 -13 0
-2 -14 0
-3 -4 0
-3 -5 0
-3 -6 0
-3 -7 0
-3 -8 0
-3 -9 0
-3 -10 0
-3 -11 0
-3 -12 0
-3 -13 0
-3 -14 0
-4 -5 0
-4 -6 0
-4 -7 0
-4 -8 0
-4 -9 0
-4 -10 0
-4 -11 0
-4 -12 0
-4 -13 0
-4 -14 0
-5 -6 0
-5 -7 0
-5 -8 0
-5 -9 0
-5 -10 0
-5 -11 0
-5 -12 0
-5 -13 0
-5 -14 0
-6 -7 0
-6 -8 0
-6 -9 0
-6 -10 0
-6 -11 0
-6 -12 0
-6 -13 0
-6 -14 0
-7 -8 0
-7 -9 0
-7 -10 0
-7 -11 0
-7 -12 0
-7 -13 0
-7 -14 0
-8 -9 0
-8 -10 0
-8 -11 0
-8 -12 0
-8 -13 0
-8 -14 0
-9 -10 0
-9 -11 0
-9 -12 0
-9 -13 0
-9 -14 0
-10 -11 0
-10 -12 0
-10 -13 0
-10 -14 0
-11 -12 0
-11 -13 0
-11 -14 0
-12 -13 0
-12 -14 0
-13 -14 0
3119 3120 3121 3122 3123 3124 3125 3126 3127 3128 3129 3130 3131 0
-3119 -3120 0
-3119 -3121 0
-3119 -3122 0
-3119 -3123 0
-3119 -3124 0
-3119 -3125 0
-3119 -3126 0
-3119 -3127 0
-3119 -3128 0
-3119 -3129 0
-3119 -3130 0
-3119 -3131 0
-3120 -3121 0
-3120 -3122 0
-3120 -3123 0
-3120 -3124 0
-3120 -3125 0
-3120 -3126 0
-3120 -3127 0
-3120 -3128 0
-3120 -3129 0
-3120 -3130 0
-3120 -3131 0
-3121 -3122 0
-3121 -3123 0
-3121 -3124 0
-3121 -3125 0
-3121 -3126 0
-3121 -3127 0
-3121 -3128 0
-3121 -3129 0
-3121 -3130 0
-3121 -3131 0
-3122 -3123 0
-3122 -3124 0
-3122 -3125 0
-3122 -3126 0
-3122 -3127 0
-3122 -3128 0
-3122 -3129 0
-3122 -3130 0
-3122 -3131 0
-3123 -3124 0
-3123 -3125 0
-3123 -3126 0
-3123 -3127 0
-3123 -3128 0
-3123 -3129 0
-3123 -3130 0
-3123 -3131 0
-3124 -3125 0
-3124 -3126 0
-3124 -3127 0
-3124 -3128 0
-3124 -3129 0
-3124 -3130 0
-3124 -3131 0
-3125 -3126 0
-3125 -3127 0
-3125 -3128 0
-3125 -3129 0
-3125 -3130 0
-3125 -3131 0
-3126 -3127 0
-3126 -3128 0
-3126 -3129 0
-3126 -3130 0
-3126 -3131 0
-3127 -3128 0
-3127 -3129 0
-3127 -3130 0
-3127 -3131 0
-3128 -3129 0
-3128 -3130 0
-3128 -3131 0
-3129 -3130 0
-3129 -3131 0
-3130 -3131 0
